peakDumbCharging = 25900; 
Machine = anon_enum(16); 
machineSpeed = [3700,3700,3700,3700,3700,3700,3700,3700,3700,3700,3700,3700,3700,3700,3700,3700]; 
machineLoad = [3700,3700,3700,3700,3700,3700,3700,3700,3700,3700,3700,3700,3700,3700,3700,3700]; 
Car = anon_enum(22); 
demandCar = [2600,7080,15440,5320,13760,6120,12200,4360,14840,10080,30120,4600,4000,4000,5800,2120,17240,3880,3520,5000,29080,13120]; 
arrivalCar = [71,67,61,60,59,59,58,57,56,56,54,52,48,47,47,47,46,46,46,40,37,37]; 
departureCar = [73,72,67,64,67,61,63,60,61,60,66,56,50,50,50,49,52,49,48,42,47,44]; 
